NAME : prob15d
TYPE : PDTSP
DIMENSION : 31
EDGE_WEIGHT_TYPE : EUC_2D
NODE_COORD_SECTION
1 614 362
2 388 435
3 809 412
4 72 628
5 442 146
6 428 118
7 515 333
8 52 186
9 547 200
10 888 989
11 523 783
12 947 4
13 297 666
14 193 195
15 206 919
16 533 717
17 510 211
18 149 485
19 508 302
20 42 189
21 614 91
22 684 806
23 824 164
24 362 451
25 910 310
26 761 612
27 665 830
28 971 752
29 907 981
30 403 655
31 850 538
PICKUP_AND_DELIVERY_SECTION
1 0 0 0 0 0 0
2 0 0 0 0 17 0
3 0 0 0 0 18 0
4 0 0 0 0 19 0
5 0 0 0 0 20 0
6 0 0 0 0 21 0
7 0 0 0 0 22 0
8 0 0 0 0 23 0
9 0 0 0 0 24 0
10 0 0 0 0 25 0
11 0 0 0 0 26 0
12 0 0 0 0 27 0
13 0 0 0 0 28 0
14 0 0 0 0 29 0
15 0 0 0 0 30 0
16 0 0 0 0 31 0
17 0 0 0 0 0 2
18 0 0 0 0 0 3
19 0 0 0 0 0 4
20 0 0 0 0 0 5
21 0 0 0 0 0 6
22 0 0 0 0 0 7
23 0 0 0 0 0 8
24 0 0 0 0 0 9
25 0 0 0 0 0 10
26 0 0 0 0 0 11
27 0 0 0 0 0 12
28 0 0 0 0 0 13
29 0 0 0 0 0 14
30 0 0 0 0 0 15
31 0 0 0 0 0 16
DEPOT_SECTION
1 
-1
EOF
